language ESSENCE' 1.0
$ minion Nodes: 1
$ minion TotalTime: 0.000391
$ Savile Row TotalTime: 0.143
letting y_tuple1_tuple2 be [12, 13;int(1,2)]
letting y_tuple1_tuple3 be [33, 55;int(1,2)]
letting y_tuple1_tuple1 be [10, 11;int(1,2)]
